Traveling Salesman Problem/TSP_generados/Aleatorio1620390867_6.tsp
NAME: Aleatorio1620390867_6.tsp
COMMENT: Randomly generated scenario
TYPE: TSP
DIMENSION: 6
EDGE_WEIGHT_TYPE: ATT
NODE_COORD_SECTION
1 35.66 26.63
2 46.68 48.97
3 40.28 24.37
4 47.49 46.18
5 42.87 45.44
6 4.74 4.51
