Traveling Salesman Problem/TSP_generados/Aleatorio1620390867_6.opt.tour
NAME: Aleatorio1620390867_6.opt.tour
COMMENT: Optimal solution for Aleatorio1620390867_6 (129.94466110255405)
TYPE: TOUR
DIMENSION: 6
TOUR_SECTION
1 5 2 4 3 6
-1
EOF
